NAME: random-75-19583
TYPE: TSP
COMMENT: size=75 seed=19583
DIMENSION: 152
EDGE_WEIGHT_TYPE: EUC_2D
NODE_COORD_SECTION
+0 481 142
-0 481 142
+1 39 887
-1 265 656
+2 715 659
-2 550 558
+3 852 467
-3 659 918
+4 120 957
-4 44 520
+5 424 24
-5 496 191
+6 690 193
-6 117 239
+7 266 348
-7 129 436
+8 563 598
-8 372 770
+9 721 503
-9 228 5
+10 222 849
-10 422 344
+11 329 654
-11 181 778
+12 122 869
-12 113 514
+13 332 551
-13 799 450
+14 323 302
-14 155 107
+15 321 918
-15 897 183
+16 296 868
-16 74 792
+17 604 671
-17 899 189
+18 583 514
-18 317 97
+19 460 428
-19 711 973
+20 528 417
-20 137 229
+21 117 469
-21 416 897
+22 849 934
-22 402 3
+23 584 209
-23 391 776
+24 785 558
-24 76 254
+25 349 490
-25 65 400
+26 401 196
-26 880 842
+27 900 665
-27 971 182
+28 915 404
-28 513 351
+29 970 215
-29 932 758
+30 273 812
-30 776 553
+31 963 44
-31 77 384
+32 824 800
-32 443 252
+33 38 442
-33 76 619
+34 643 913
-34 987 257
+35 238 750
-35 777 284
+36 496 982
-36 401 743
+37 66 296
-37 387 947
+38 589 560
-38 285 675
+39 280 889
-39 684 736
+40 818 135
-40 898 850
+41 669 723
-41 516 745
+42 940 677
-42 615 781
+43 794 382
-43 75 332
+44 765 382
-44 817 449
+45 387 32
-45 449 369
+46 634 350
-46 892 2
+47 203 734
-47 436 868
+48 726 975
-48 128 678
+49 876 83
-49 716 566
+50 928 88
-50 737 438
+51 946 890
-51 725 361
+52 852 222
-52 828 146
+53 776 800
-53 712 955
+54 104 899
-54 988 44
+55 208 884
-55 854 836
+56 571 559
-56 17 641
+57 319 833
-57 844 917
+58 958 597
-58 272 9
+59 941 847
-59 765 861
+60 926 948
-60 180 986
+61 379 792
-61 553 788
+62 305 330
-62 935 955
+63 896 30
-63 783 507
+64 194 604
-64 280 949
+65 623 309
-65 650 740
+66 840 793
-66 493 473
+67 882 477
-67 849 990
+68 402 264
-68 374 437
+69 973 982
-69 19 775
+70 702 209
-70 850 313
+71 819 479
-71 300 883
+72 831 956
-72 860 271
+73 537 297
-73 223 351
+74 147 163
-74 852 347
+75 701 224
-75 473 990
PRECEDENCE_SECTION
+0 -0
+1 -1
+2 -2
+3 -3
+4 -4
+5 -5
+6 -6
+7 -7
+8 -8
+9 -9
+10 -10
+11 -11
+12 -12
+13 -13
+14 -14
+15 -15
+16 -16
+17 -17
+18 -18
+19 -19
+20 -20
+21 -21
+22 -22
+23 -23
+24 -24
+25 -25
+26 -26
+27 -27
+28 -28
+29 -29
+30 -30
+31 -31
+32 -32
+33 -33
+34 -34
+35 -35
+36 -36
+37 -37
+38 -38
+39 -39
+40 -40
+41 -41
+42 -42
+43 -43
+44 -44
+45 -45
+46 -46
+47 -47
+48 -48
+49 -49
+50 -50
+51 -51
+52 -52
+53 -53
+54 -54
+55 -55
+56 -56
+57 -57
+58 -58
+59 -59
+60 -60
+61 -61
+62 -62
+63 -63
+64 -64
+65 -65
+66 -66
+67 -67
+68 -68
+69 -69
+70 -70
+71 -71
+72 -72
+73 -73
+74 -74
+75 -75
EOF
